# Objective value = 607758
x0min 20
y0min 29
max0H 2
max0V 2
x1min 22
y1min 32
max1H 0
max1V 2
x2min 20
y2min 73
b2_reduceLturns 1
x4min 20
y4min 20
max4H 2
max4V 2
x5min 20
y5min 20
b5_reduceLturns 0
x6min 20
y6min 29
max6H 2
max6V 2
x7min 20
y7min 64
b7_reduceLturns 1
b9 0
x8_BoundBx_hminM 20
y8_BoundBx_vminM 29
x11min 83
y11LdistBeforeGateOut 0
y11LdistBeforeGateIn 0
b13 0
x12_BoundBx_hminM 20
y12_BoundBx_vminM 29
x15min 71
y15LdistBeforeGateOut 0
y15LdistBeforeGateIn 0
x16min 13
y16min 79
max16H 3
max16V 3
x17min 13
y17min 12
max17H 3
max17V 3
x18min 12
y18min 26
b18_reduceLturns 1
x19min 40
y19min 41
max19H 0
max19V 2
x20min 38
y20min 25
max20H 3
max20V 3
x21min 12
y21min 12
b21_reduceLturns 0
x22_BoundBx_hminM 40
y22_BoundBx_vminM 41
x22_BoundBx_hminP 38
y22_BoundBx_vminP 25
x24min 13
y24min 104
max24H 3
max24V 3
x25min 12
y25min 12
b25_reduceLturns 0
x26min 20
y26min 20
x27min 20
y27min 20
b27_reduceLturns 0
max26H 2
max26V 2
x28min 20
y28min 20
max28H 2
max28V 2
x29min 20
y29min 20
b29_reduceLturns 0
x30min 20
y30min 20
max30H 2
max30V 2
x31min 20
y31min 20
b31_reduceLturns 0
x32min 20
y32min 29
max32H 2
max32V 2
x33min 20
y33min 130
b33_reduceLturns 1
x34min 20
y34min 29
max34H 2
max34V 2
x35min 20
y35min 20
max35H 2
max35V 2
x36min 20
y36min 20
b36_reduceLturns 0
x37min 20
y37min 20
max37H 2
max37V 2
x38min 20
y38min 179
b38_reduceLturns 1
x39min 20
y39min 20
x40min 20
y40min 20
b40_reduceLturns 0
max39H 2
max39V 2
x41min 20
y41min 20
b41_reduceLturns 0
b43 0
x42_BoundBx_hminM 20
y42_BoundBx_vminM 29
x_CntsBoundBx359__boundbx_min 67
y_CntsBoundBx359__boundbx_min 17
y11LdistAfterGateOut 0
y11LdistAfterGateIn 0
b46 0
x45_BoundBx_hminM 20
y45_BoundBx_vminM 29
x_CntsBoundBx360__boundbx_min 67
y_CntsBoundBx360__boundbx_min 17
y15LdistAfterGateOut 0
y15LdistAfterGateIn 0
width 120
ZERO 0
UM 1
RELAXATION 20000
HGRID_OFFSET 0
VGRID_OFFSET 0
height 520
posNWell 228
yNDiffa 40
yNDiffb 192
yPDiffa 258
yPDiffb 480
yGNDb 72
yVDDa 448
x0b 48
x0a 28
y0b 191
y0a 162
b0_endline_v 0
b0_endline_h 1
x0a2 0
x0b2 52
y0a2 92
y0b2 204
x1b 50
x1a 28
y1b 256
y1a 224
b1_endline_v 1
b1_endline_h 0
x1a2 0
x1b2 50
y1a2 220
y1b2 260
x2b 48
x2a 28
y2b 244
y2a 171
x3b 50
x3a 30
y3b 250
y3a 230
b3_1V 0
b3_2V 1
x3g 40
x3gpos 1
y3g 240
y3gpos 6
x4b 48
x4a 28
y4b 256
y4a 236
b4_endline_v 1
b4_endline_h 0
x4a2 0
x4b2 50
y4a2 0
y4b2 260
x5b 48
x5a 28
y5b 256
y5a 236
x6b 48
x6a 28
y6b 309
y6a 280
b6_endline_v 1
b6_endline_h 0
x6a2 0
x6b2 50
y6a2 276
y6b2 428
x7b 48
x7a 28
y7b 300
y7a 236
x8b 47
x8a 30
y8b 185
y8a 168
x8_BoundBx_a 30
x8_BoundBx_b 47
y8_BoundBx_a 168
y8_BoundBx_b 185
y9a 185
x9b 30
x9a 30
y9b 185
b8_BoundBx__1M 0
b8_BoundBx__2M 1
b8_BoundBx__3M 0
x8_BoundBx_hM 1
y8_BoundBx_vM 6
x_CntsBoundBx340_a 30
x_CntsBoundBx340_b 47
y_CntsBoundBx340_a 168
y_CntsBoundBx340_b 185
b10_v 0
b10_h 1
x10a 22
x10b 55
y10a 165
y10b 192
x11b 105
x11a 22
y11a 165
y11b 192
x12b 48
x12a 31
y12b 303
y12a 286
x12_BoundBx_a 31
x12_BoundBx_b 48
y12_BoundBx_a 286
y12_BoundBx_b 303
y13a 303
x13b 31
x13a 31
y13b 303
b12_BoundBx__1M 0
b12_BoundBx__2M 1
b12_BoundBx__3M 0
x12_BoundBx_hM 0
y12_BoundBx_vM 6
b8_BoundBx__12_BoundBx__1 0
b8_BoundBx__12_BoundBx__2 1
b8_BoundBx__12_BoundBx__3 0
x_CntsBoundBx341_a 31
x_CntsBoundBx341_b 48
y_CntsBoundBx341_a 286
y_CntsBoundBx341_b 303
b14_v 1
b14_h 0
x14a 29
x14b 50
y14a 259
y14b 311
x15b 100
x15a 29
y15a 259
y15b 311
b8_BoundBx__15_1_342 1
b8_BoundBx__15_2_342 0
b8_BoundBx__15_3_342 0
b12_BoundBx__11_1_343 1
b12_BoundBx__11_2_343 0
b12_BoundBx__11_3_343 0
x16b 70
x16a 57
y16b 218
y16a 139
b16_endline_v 1
b16_endline_h 0
x16a2 0
x16b2 73
y16a2 0
y16b2 221
x17b 71
x17a 58
y17b 232
y17a 220
b17_endline_v 1
b17_endline_h 0
x17a2 0
x17b2 74
y17a2 0
y17b2 235
x18b 70
x18a 58
y18b 232
y18a 206
b11_17_1_344 0
b11_17_2_344 0
b11_17_3_344 1
b15_17_1_345 1
b15_17_2_345 0
b15_17_3_345 0
x19b 110
x19a 70
y19b 256
y19a 215
b19_endline_v 1
b19_endline_h 0
x19a2 70
x19b2 114
y19a2 211
y19b2 260
b0_19_1 0
b0_19_2 0
b0_19_3 1
b1_19_1 1
b1_19_2 0
b1_19_3 0
b6_19_1 0
b6_19_2 1
b6_19_3 0
x20b 97
x20a 59
y20b 245
y20a 220
b20_endline_v 1
b20_endline_h 0
x20a2 0
x20b2 100
y20a2 0
y20b2 248
x21b 71
x21a 59
y21b 232
y21a 220
b11_20_1_346 0
b11_20_2_346 0
b11_20_3_346 1
b15_20_1_347 1
b15_20_2_347 0
b15_20_3_347 0
x22b 87
x22a 70
y22b 241
y22a 224
x22_BoundBx_a 70
x22_BoundBx_b 87
y22_BoundBx_a 224
y22_BoundBx_b 241
b22_BoundBx__1M 0
b22_BoundBx__2M 1
b22_BoundBx__3M 0
x22_BoundBx_hM 0
y22_BoundBx_vM 6
b8_BoundBx__22_BoundBx__1 0
b8_BoundBx__22_BoundBx__2 0
b8_BoundBx__22_BoundBx__3 1
b12_BoundBx__22_BoundBx__1 0
b12_BoundBx__22_BoundBx__2 0
b12_BoundBx__22_BoundBx__3 1
b22_BoundBx__1P 1
b22_BoundBx__2P 0
b22_BoundBx__3P 0
x22_BoundBx_hP 10
y22_BoundBx_vP 4
x23b 90
x23a 70
y23b 250
y23a 230
b23_1V 0
b23_2V 1
x19_width 40
y19_width 41
x23g 80
x23gpos 2
y23g 240
y23gpos 6
x24b 71
x24a 58
y24b 337
y24a 233
b24_endline_v 1
b24_endline_h 0
x24a2 0
x24b2 74
y24a2 0
y24b2 340
x25b 71
x25a 59
y25b 245
y25a 233
b11_smallTransWidth 1
b17_16_1_348 1
b17_16_2_348 0
b17_16_3_348 0
b11_LshapeBeforeGate 0
b11_applyS2BeforeGate 0
b16_applyExtraExtBeforeGate 0
b11_LshapeBeforeGateOut 0
b11_LshapeBeforeGateIn 0
b11_LshapeAfterGateIn 0
b11_Ushape 0
b11_LshapeAfterGateOut 0
x11_lastDiffEnc_b 55
b15_smallTransWidth 0
b20_24_1_349 0
b20_24_2_349 0
b20_24_3_349 0
b15_LshapeBeforeGate 0
b15_applyS2BeforeGate 0
b24_applyExtraExtBeforeGate 0
b15_LshapeBeforeGateOut 0
b15_LshapeBeforeGateIn 0
b15_LshapeAfterGateIn 0
b15_Ushape 0
b15_LshapeAfterGateOut 0
x15_lastDiffEnc_b 50
b16_15_1_350 1
b16_15_2_350 0
b16_15_3_350 0
b17_11_1_351 1
b17_11_2_351 0
b17_11_3_351 0
b17_15_1_352 1
b17_15_2_352 0
b17_15_3_352 0
b22_BoundBx__11_1_353 1
b22_BoundBx__11_2_353 0
b22_BoundBx__11_3_353 0
b22_BoundBx__15_1_354 1
b22_BoundBx__15_2_354 0
b22_BoundBx__15_3_354 0
b20_11_1_355 1
b20_11_2_355 0
b20_11_3_355 0
b20_15_1_356 1
b20_15_2_356 0
b20_15_3_356 0
b24_11_1_357 1
b24_11_2_357 0
b24_11_3_357 0
b24_11_1_358 1
b24_11_2_358 0
b24_11_3_358 0
x26b 100
x26a 80
y26b 72
y26a 52
x27b 100
x27a 80
y27b 72
y27a 52
xGNDb 100
xGNDa 0
yGNDa 0
b26_endline_v 0
b26_endline_h 1
x26a2 76
x26b2 104
y26a2 0
y26b2 74
b0_26_1 1
b0_26_2 0
b0_26_3 0
b1_26_1 1
b1_26_2 0
b1_26_3 0
b19_26_1 0
b19_26_2 1
b19_26_3 0
b6_26_1 1
b6_26_2 0
b6_26_3 0
x28b 100
x28a 80
y28b 72
y28a 52
b28_endline_v 0
b28_endline_h 1
x28a2 76
x28b2 104
y28a2 0
y28b2 74
b0_28_1 1
b0_28_2 0
b0_28_3 0
b1_28_1 1
b1_28_2 0
b1_28_3 0
b19_28_1 0
b19_28_2 1
b19_28_3 0
b6_28_1 1
b6_28_2 0
b6_28_3 0
x29b 100
x29a 80
y29b 72
y29a 52
x30b 100
x30a 80
y30b 72
y30a 52
b30_endline_v 1
b30_endline_h 0
x30a2 78
x30b2 102
y30a2 0
y30b2 76
b0_30_1 1
b0_30_2 0
b0_30_3 0
b1_30_1 1
b1_30_2 0
b1_30_3 0
b19_30_1 0
b19_30_2 1
b19_30_3 0
b6_30_1 1
b6_30_2 0
b6_30_3 0
x31b 100
x31a 80
y31b 72
y31a 52
x32b 100
x32a 80
y32b 191
y32a 162
b32_endline_v 1
b32_endline_h 0
x32a2 68
x32b2 102
y32a2 0
y32b2 195
b1_32_1 0
b1_32_2 1
b1_32_3 0
b19_32_1 0
b19_32_2 1
b19_32_3 0
b6_32_1 0
b6_32_2 1
b6_32_3 0
x33b 100
x33a 80
y33b 182
y33a 52
x34b 100
x34a 80
y34b 309
y34a 280
b34_endline_v 1
b34_endline_h 0
x34a2 78
x34b2 102
y34a2 276
y34b2 313
b0_34_1 1
b0_34_2 0
b0_34_3 0
b1_34_1 0
b1_34_2 0
b1_34_3 1
b19_34_1 0
b19_34_2 1
b19_34_3 0
b6_34_1 1
b6_34_2 0
b6_34_3 0
x35b 100
x35a 80
y35b 309
y35a 289
b35_endline_v 1
b35_endline_h 0
x35a2 78
x35b2 102
y35a2 285
y35b2 313
b0_35_1 1
b0_35_2 0
b0_35_3 0
b1_35_1 1
b1_35_2 0
b1_35_3 0
b19_35_1 0
b19_35_2 1
b19_35_3 0
b6_35_1 1
b6_35_2 0
b6_35_3 0
x36b 100
x36a 80
y36b 309
y36a 289
x37b 100
x37a 80
y37b 468
y37a 448
b37_endline_v 1
b37_endline_h 0
x37a2 78
x37b2 102
y37a2 444
y37b2 472
b0_37_1 1
b0_37_2 0
b0_37_3 0
b1_37_1 1
b1_37_2 0
b1_37_3 0
b19_37_1 0
b19_37_2 1
b19_37_3 0
b6_37_1 1
b6_37_2 0
b6_37_3 0
x38b 100
x38a 80
y38b 468
y38a 289
x39b 100
x39a 80
y39b 468
y39a 448
x40b 100
x40a 80
y40b 468
y40a 448
xVDDa 0
xVDDb 100
yVDDb 468
b39_endline_v 1
b39_endline_h 0
x39a2 78
x39b2 102
y39a2 444
y39b2 472
b0_39_1 1
b0_39_2 0
b0_39_3 0
b1_39_1 0
b1_39_2 1
b1_39_3 0
b19_39_1 0
b19_39_2 1
b19_39_3 0
b6_39_1 1
b6_39_2 0
b6_39_3 0
x41b 100
x41a 80
y41b 468
y41a 448
x42b 97
x42a 80
y42b 185
y42a 168
x42_BoundBx_a 80
x42_BoundBx_b 97
y42_BoundBx_a 168
y42_BoundBx_b 185
y43a 185
x43b 80
x43a 80
y43b 185
b42_BoundBx__1M 0
b42_BoundBx__2M 1
b42_BoundBx__3M 0
x42_BoundBx_hM 0
y42_BoundBx_vM 6
b22_BoundBx__42_BoundBx__1 0
b22_BoundBx__42_BoundBx__2 1
b22_BoundBx__42_BoundBx__3 0
b12_BoundBx__42_BoundBx__1 0
b12_BoundBx__42_BoundBx__2 1
b12_BoundBx__42_BoundBx__3 0
x_CntsBoundBx359_a 80
x_CntsBoundBx359_b 97
y_CntsBoundBx359_a 168
y_CntsBoundBx359_b 185
b44_v 0
b44_h 1
x44a 72
x44b 105
y44a 165
y44b 192
y_CntsBoundBx359__boundbx_a 168
y_CntsBoundBx359__boundbx_b 185
b11_LshapeAfterGate 0
b11_applyS2AfterGate 0
b16_applyExtraExtAfterGate 0
x45b 98
x45a 81
y45b 303
y45a 286
x45_BoundBx_a 81
x45_BoundBx_b 98
y45_BoundBx_a 286
y45_BoundBx_b 303
y46a 303
x46b 81
x46a 81
y46b 303
b45_BoundBx__1M 0
b45_BoundBx__2M 1
b45_BoundBx__3M 0
x45_BoundBx_hM 1
y45_BoundBx_vM 6
b42_BoundBx__45_BoundBx__1 0
b42_BoundBx__45_BoundBx__2 1
b42_BoundBx__45_BoundBx__3 0
b8_BoundBx__45_BoundBx__1 0
b8_BoundBx__45_BoundBx__2 1
b8_BoundBx__45_BoundBx__3 0
b22_BoundBx__45_BoundBx__1 0
b22_BoundBx__45_BoundBx__2 0
b22_BoundBx__45_BoundBx__3 1
b12_BoundBx__45_BoundBx__1 1
b12_BoundBx__45_BoundBx__2 0
b12_BoundBx__45_BoundBx__3 0
x_CntsBoundBx360_a 81
x_CntsBoundBx360_b 98
y_CntsBoundBx360_a 286
y_CntsBoundBx360_b 303
b47_v 1
b47_h 0
x47a 79
x47b 100
y47a 259
y47b 311
y_CntsBoundBx360__boundbx_a 286
y_CntsBoundBx360__boundbx_b 303
b15_LshapeAfterGate 0
b15_applyS2AfterGate 0
b24_applyExtraExtAfterGate 0
b42_BoundBx__15_1_361 1
b42_BoundBx__15_2_361 0
b42_BoundBx__15_3_361 0
b45_BoundBx__11_1_362 1
b45_BoundBx__11_2_362 0
b45_BoundBx__11_3_362 0
width_gpos 3
+ 0
- 0
12 0
0.500000 0
2.000000 0
20 0
